p cnf 10 20
1 2 -7 0
1 6 9 0
-8 -9 -10 0
-4 -8 -9 0
-1 2 3 0
3 -7 -10 0
-1 3 -5 0
-6 9 10 0
-5 7 8 0
-4 5 -10 0
-2 4 9 0
3 7 9 0
3 4 6 0
-1 7 -8 0
-1 -2 3 0
6 9 10 0
-1 -9 10 0
-1 8 -10 0
2 -7 -8 0
-4 -7 -10 0
